
Gurobi 7.5.1 (mac64, Java) logging started Wed Aug 16 14:34:02 2017

Academic license - for non-commercial use only

Gurobi 7.5.1 (mac64, Java) logging started Wed Aug 16 14:37:10 2017

Academic license - for non-commercial use only

Gurobi 7.5.1 (mac64, Java) logging started Wed Aug 16 14:42:08 2017

Academic license - for non-commercial use only

Gurobi 7.5.1 (mac64, Java) logging started Wed Aug 16 15:28:44 2017

Academic license - for non-commercial use only
